15
4
14
13
6
3
17
2
9
12
19
1
8
11
2
2
18
7
17
18
9
10
8
13
13
5
12
16
20
7
17
5
12
13
14
2
5
16
7
6
7
6
19
12
11
2
1
14
6
4
10
13
3
6
17
16
14
15
13
7
3
5
4
15
4
12
1
19
7
9
8
17
4
4
7
15
15
12
5
14
11
10
19
2
18
2
19
4
17
18
4
5
4
11
13
18
20
5
13
17
8
7
12
4
10
17
2
13
7
16
20
18
2
8
16
14
11
4
5
6
14
6
4
10
8
13
7
4
6
1
16
16
18
10
19
17
8
18
12
4
12
13
7
15
13
15
10
1
9
1
9
9
14
12
13
4
3
3
11
8
11
11
6
8
6
14
20
18
1
14
17
13
13
4
9
3
1
2
12
18
13
1
13
8
15
11
8
5
4
16
17
7
8
4
13
12
19
7
8
6
